
Log started (V11.0.0) Thu Apr 24 11:02:23 2008

Tried aggregator 1 time.
Reduced MIP has 540 rows, 20001 columns, and 40040 nonzeros.
Presolve time =    0.14 sec.
Clique table members: 500.
MIP emphasis: balance optimality and feasibility.
MIP search method: dynamic search.
Parallel mode: none, using 1 thread.
Root relaxation solution time =    1.38 sec.

        Nodes                                         Cuts/
   Node  Left     Objective  IInf  Best Integer     Best Node    ItCnt     Gap

*     0+    0                        75708.0000     1273.7042      904   98.32%
*     0+    0                         1345.0000     1273.7042      904    5.30%
      0     0     1274.1823    77     1345.0000      Fract: 6      951    5.27%
*     0+    0                         1329.0000     1274.1823      951    4.12%
      0     0     1274.8197    81     1329.0000     Covers: 1     1018    4.08%
      0     0     1275.2154    85     1329.0000     Covers: 2     1052    4.05%
      0     0     1275.7363    84     1329.0000     Covers: 2     1100    4.01%
      0     0     1276.0194    91     1329.0000     Covers: 2     1122    3.99%
      0     0     1276.0212    90     1329.0000     Covers: 2     1128    3.99%
      0     0     1276.0262    98     1329.0000     Covers: 3     1143    3.99%
*     0+    0                         1328.0000     1276.0262     1143    3.91%
*     0+    0                         1325.0000     1276.0262     1143    3.70%
*     0+    0                         1323.0000     1276.0262     1143    3.55%
      0     2     1276.0262    98     1323.0000     1276.0262     1143    3.55%
    100   101     1277.0000    84     1323.0000     1276.0391     3225    3.55%
*   200+  195                         1322.0000     1276.0391     6453    3.48%
*   200+  195                         1321.0000     1276.0391     6453    3.40%
    200   197     1278.0000    81     1321.0000     1276.0391     6453    3.40%
    300   273     1279.0000    79     1321.0000     1276.0391    14628    3.40%
    400   333     1279.0000    81     1321.0000     1276.0391    27584    3.40%
    500   400     1280.0000    78     1321.0000     1276.0391    35192    3.40%
*   506+  269                         1320.0000     1282.7978    39498    2.82%
    600   294     1285.0000    79     1320.0000     1282.8258    45805    2.82%
    700   319     1285.0000    97     1320.0000     1282.8258    51810    2.82%
*   706+  278                         1319.0000     1282.8258    52082    2.74%
    800   304     1285.0000   115     1319.0000     1282.8258    59814    2.74%
    900   384     1286.0000    72     1319.0000     1282.8258    71729    2.74%
   1000   483     1286.0000   102     1319.0000     1282.8258    80506    2.74%
Elapsed time = 345.13 sec. (tree size =  6.35 MB, solutions = 10)
   1100   568     1287.2296    95     1319.0000     1282.8258    92072    2.74%
   1200   652     1291.0000    76     1319.0000     1282.8258    96667    2.74%
   1300   724        cutoff           1319.0000     1282.8258   102376    2.74%
   1400   799     1292.7451    80     1319.0000     1282.8258   107325    2.74%
   1500   874     1293.2142    81     1319.0000     1282.8258   113145    2.74%
   1600   951     1293.0000    65     1319.0000     1282.8258   119321    2.74%
   1700  1034     1295.0000    71     1319.0000     1282.8258   123475    2.74%
   1800  1100     1297.1556    76     1319.0000     1282.8258   128021    2.74%
   1900  1167     1300.1427    72     1319.0000     1282.8258   131964    2.74%
   2000  1229     1300.3365    72     1319.0000     1282.8258   137103    2.74%
Elapsed time = 465.22 sec. (tree size = 17.50 MB, solutions = 10)
   2100  1292     1301.0000    71     1319.0000     1282.8258   142038    2.74%
   2200  1354     1303.3622    69     1319.0000     1282.8258   147020    2.74%
   2300  1425     1310.0000    58     1319.0000     1282.8258   151973    2.74%
   2400  1502     1304.9715    70     1319.0000     1282.8258   156229    2.74%
   2500  1575     1308.0575    69     1319.0000     1282.8258   159996    2.74%
   2600  1641     1308.5316    62     1319.0000     1282.8258   162920    2.74%
   2700  1703     1308.7996    68     1319.0000     1282.8258   166766    2.74%
   2800  1769     1315.0000    63     1319.0000     1282.8258   170457    2.74%
   2900  1832     1313.7102    67     1319.0000     1282.8258   174742    2.74%
   3000  1896     1313.0000    64     1319.0000     1282.8258   179081    2.74%
Elapsed time = 555.17 sec. (tree size = 27.52 MB, solutions = 10)
   3100  1937     1318.0000    59     1319.0000     1282.8258   181201    2.74%
   3200  2018     1284.0000   163     1319.0000     1282.8509   189502    2.74%
   3300  2117     1284.0000   149     1319.0000     1282.8509   201968    2.74%
   3400  2212     1285.0000    94     1319.0000     1282.8509   211796    2.74%
   3500  2311     1285.0000   103     1319.0000     1282.8509   219568    2.74%
   3600  2408     1286.0000   103     1319.0000     1282.8509   228843    2.74%
   3700  2499     1287.0000    82     1319.0000     1282.8509   238049    2.74%
   3800  2590     1288.0000    75     1319.0000     1282.8509   246534    2.74%
   3900  2684     1289.0000    68     1319.0000     1282.8509   255214    2.74%
   4000  2774     1290.0000    73     1319.0000     1282.8509   264901    2.74%
Elapsed time = 801.41 sec. (tree size = 40.08 MB, solutions = 10)
   4100  2867     1291.0000    71     1319.0000     1282.8509   271584    2.74%
   4200  2958     1292.0000    73     1319.0000     1282.8509   281775    2.74%
   4300  3048     1293.0000    73     1319.0000     1282.8509   289273    2.74%
   4400  3128     1294.0000    71     1319.0000     1282.8509   305257    2.74%
   4500  3204     1294.0000    69     1319.0000     1282.8509   314569    2.74%
   4600  3288     1296.0000    70     1319.0000     1282.8509   321478    2.74%
   4700  3366     1302.0000    67     1319.0000     1282.8509   323824    2.74%
   4800  3446     1304.0000    61     1319.0000     1282.8509   326681    2.74%
   4900  3523     1304.0000    73     1319.0000     1282.8509   328990    2.74%
   5000  3599     1307.0000    64     1319.0000     1282.8509   331214    2.74%
Elapsed time = 944.89 sec. (tree size = 52.94 MB, solutions = 10)
   5100  3673     1309.0000    66     1319.0000     1282.8509   333886    2.74%
   5200  3744     1311.0000    64     1319.0000     1282.8509   336609    2.74%
   5300  3809     1312.0000    63     1319.0000     1282.8509   339029    2.74%
   5400  3861     1286.5572   292     1319.0000     1284.0000   363980    2.65%
   5500  3947     1286.0000   160     1319.0000     1284.0000   443963    2.65%
*  5506+ 3930                         1318.0000     1284.0000   445173    2.58%
   5600  4023     1287.0000   207     1318.0000     1284.0000   499097    2.58%
   5700  4119     1291.0000   118     1318.0000     1284.0000   521128    2.58%
   5800  4217     1286.0000   242     1318.0000     1284.0000   567645    2.58%
   5900  4315     1288.0000   140     1318.0000     1284.0000   589134    2.58%
   6000  4410     1287.0000   148     1318.0000     1284.0000   617543    2.58%
Elapsed time = 2037.67 sec. (tree size = 69.62 MB, solutions = 11)
   6100  4502     1288.0000   112     1318.0000     1284.0000   648064    2.58%
   6200  4600     1288.0000   128     1318.0000     1284.0000   693966    2.58%
   6300  4699     1289.0000   108     1318.0000     1284.0000   716614    2.58%
   6400  4796     1286.0000   261     1318.0000     1284.0000   767904    2.58%
   6500  4892     1287.0000   116     1318.0000     1284.0000   804655    2.58%
   6600  4988     1291.0000   120     1318.0000     1284.0000   846828    2.58%
   6700  5088     1291.0000   196     1318.0000     1284.0000   873502    2.58%
   6800  5187     1286.0000   210     1318.0000     1284.0000   907366    2.58%
   6900  5281     1287.0000   123     1318.0000     1284.0000   944313    2.58%
   7000  5379     1289.0000   204     1318.0000     1284.0000   975220    2.58%
Elapsed time = 3263.27 sec. (tree size = 91.71 MB, solutions = 11)
   7100  5478     1290.0000   164     1318.0000     1284.0000   988926    2.58%
   7200  5575     1288.0000   168     1318.0000     1284.0000  1021000    2.58%
   7300  5674     1289.0000   187     1318.0000     1284.0000  1042934    2.58%
   7400  5772     1287.0000   232     1318.0000     1284.0000  1091920    2.58%
   7500  5867     1288.0000   106     1318.0000     1284.0000  1123072    2.58%
   7600  5959     1288.0000   164     1318.0000     1284.0000  1189064    2.58%
   7700  6058     1288.0000   141     1318.0000     1284.0000  1201854    2.58%
   7800  6155     1289.0000   193     1318.0000     1284.0000  1247296    2.58%
   7900  6253     1291.0000   125     1318.0000     1284.0000  1269641    2.58%
   8000  6351     1292.0000   148     1318.0000     1284.0000  1290370    2.58%
Elapsed time = 4444.19 sec. (tree size = 114.28 MB, solutions = 11)
   8100  6450     1293.0000   109     1318.0000     1284.0000  1309698    2.58%
   8200  6548     1290.0000   135     1318.0000     1284.0000  1337080    2.58%
   8300  6647     1291.0000   172     1318.0000     1284.0000  1358048    2.58%
   8400  6744     1292.0000   144     1318.0000     1284.0000  1380266    2.58%
   8500  6840     1292.0000   151     1318.0000     1284.0000  1408141    2.58%
   8600  6936     1291.0000   197     1318.0000     1284.0000  1436067    2.58%
   8700  7035     1292.0000   105     1318.0000     1284.0000  1451114    2.58%
   8800  7132     1293.0000   175     1318.0000     1284.0000  1486679    2.58%
   8900  7231     1294.0000   106     1318.0000     1284.0000  1496285    2.58%
   9000  7328     1291.0000   132     1318.0000     1284.0000  1528846    2.58%
Elapsed time = 5279.75 sec. (tree size = 137.74 MB, solutions = 11)
Nodefile size = 10.44 MB (4.42 MB after compression)
   9100  7426     1294.0000   132     1318.0000     1284.0000  1553919    2.58%
   9200  7520     1288.0000   234     1318.0000     1284.0000  1602906    2.58%
   9300  7614     1290.0000   141     1318.0000     1284.0000  1629692    2.58%
   9400  7712     1287.0000   122     1318.0000     1284.0000  1668937    2.58%
   9500  7811     1287.0000   148     1318.0000     1284.0000  1680664    2.58%
   9600  7909     1288.0000   185     1318.0000     1284.0000  1720722    2.58%
   9700  8007     1290.0000   112     1318.0000     1284.0000  1748103    2.58%
   9800  8103     1289.0000   176     1318.0000     1284.0000  1797694    2.58%
   9900  8202     1290.0000   104     1318.0000     1284.0000  1822106    2.58%
  10000  8298     1287.0000   204     1318.0000     1284.0000  1866187    2.58%
Elapsed time = 6479.98 sec. (tree size = 161.27 MB, solutions = 11)
Nodefile size = 33.76 MB (15.83 MB after compression)
  10100  8395     1288.0000   109     1318.0000     1284.0000  1889020    2.58%
  10200  8492     1288.0000   184     1318.0000     1284.0000  1933225    2.58%
  10300  8591     1289.0000   102     1318.0000     1284.0000  1948300    2.58%
  10400  8685     1287.0000   212     1318.0000     1284.0000  2001305    2.58%
  10500  8780     1288.0000   146     1318.0000     1284.0000  2031513    2.58%
  10600  8877     1288.0000   136     1318.0000     1284.0000  2069673    2.58%

Cover cuts applied:  1092
Zero-half cuts applied:  3
Gomory fractional cuts applied:  18

Solution pool: 11 solutions saved.

MIP - Time limit exceeded, integer feasible:  Objective = 1.3180000000e+003
Current MIP best bound = 1.2840000000e+003 (gap = 34, 2.58%)
Solution time = 7200.03 sec.  Iterations = 2071743  Nodes = 10617 (8893)


Incumbent solution
Variable Name           Solution Value
Cmax                       1318.000000
X_1_5                         1.000000
X_2_33                        1.000000
X_3_9                         1.000000
X_4_18                        1.000000
X_5_37                        1.000000
X_6_6                         1.000000
X_7_18                        1.000000
X_8_27                        1.000000
X_9_22                        1.000000
X_10_12                       1.000000
X_11_13                       1.000000
X_12_28                       1.000000
X_13_37                       1.000000
X_14_36                       1.000000
X_15_25                       1.000000
X_16_1                        1.000000
X_17_36                       1.000000
X_18_14                       1.000000
X_19_5                        1.000000
X_20_29                       1.000000
X_21_10                       1.000000
X_22_8                        1.000000
X_23_33                       1.000000
X_24_31                       1.000000
X_25_4                        1.000000
X_26_15                       1.000000
X_27_37                       1.000000
X_28_38                       1.000000
X_29_2                        1.000000
X_30_36                       1.000000
X_31_39                       1.000000
X_32_10                       1.000000
X_33_17                       1.000000
X_34_36                       1.000000
X_35_18                       1.000000
X_36_38                       1.000000
X_37_35                       1.000000
X_38_14                       1.000000
X_39_14                       1.000000
X_40_24                       1.000000
X_41_9                        1.000000
X_42_10                       1.000000
X_43_7                        1.000000
X_44_12                       1.000000
X_45_23                       1.000000
X_46_27                       1.000000
X_47_30                       1.000000
X_48_16                       1.000000
X_49_1                        1.000000
X_50_9                        1.000000
X_51_28                       1.000000
X_52_33                       1.000000
X_53_28                       1.000000
X_54_28                       1.000000
X_55_7                        1.000000
X_56_22                       1.000000
X_57_29                       1.000000
X_58_28                       1.000000
X_59_14                       1.000000
X_60_14                       1.000000
X_61_24                       1.000000
X_62_2                        1.000000
X_63_6                        1.000000
X_64_36                       1.000000
X_65_24                       1.000000
X_66_5                        1.000000
X_67_6                        1.000000
X_68_21                       1.000000
X_69_21                       1.000000
X_70_1                        1.000000
X_71_24                       1.000000
X_72_7                        1.000000
X_73_20                       1.000000
X_74_32                       1.000000
X_75_17                       1.000000
X_76_19                       1.000000
X_77_25                       1.000000
X_78_8                        1.000000
X_79_33                       1.000000
X_80_24                       1.000000
X_81_39                       1.000000
X_82_30                       1.000000
X_83_3                        1.000000
X_84_24                       1.000000
X_85_22                       1.000000
X_86_13                       1.000000
X_87_12                       1.000000
X_88_25                       1.000000
X_89_18                       1.000000
X_90_25                       1.000000
X_91_4                        1.000000
X_92_20                       1.000000
X_93_13                       1.000000
X_94_16                       1.000000
X_95_25                       1.000000
X_96_20                       1.000000
X_97_32                       1.000000
X_98_7                        1.000000
X_99_27                       1.000000
X_100_24                      1.000000
X_101_40                      1.000000
X_102_30                      1.000000
X_103_8                       1.000000
X_104_5                       1.000000
X_105_38                      1.000000
X_106_31                      1.000000
X_107_18                      1.000000
X_108_24                      1.000000
X_109_26                      1.000000
X_110_20                      1.000000
X_111_19                      1.000000
X_112_14                      1.000000
X_113_15                      1.000000
X_114_2                       1.000000
X_115_24                      1.000000
X_116_14                      1.000000
X_117_9                       1.000000
X_118_19                      1.000000
X_119_32                      1.000000
X_120_10                      1.000000
X_121_3                       1.000000
X_122_36                      1.000000
X_123_40                      1.000000
X_124_31                      1.000000
X_125_6                       1.000000
X_126_15                      1.000000
X_127_10                      1.000000
X_128_16                      1.000000
X_129_19                      1.000000
X_130_27                      1.000000
X_131_2                       1.000000
X_132_8                       1.000000
X_133_30                      1.000000
X_134_38                      1.000000
X_135_28                      1.000000
X_136_13                      1.000000
X_137_38                      1.000000
X_138_4                       1.000000
X_139_26                      1.000000
X_140_39                      1.000000
X_141_34                      1.000000
X_142_2                       1.000000
X_143_31                      1.000000
X_144_10                      1.000000
X_145_13                      1.000000
X_146_32                      1.000000
X_147_23                      1.000000
X_148_20                      1.000000
X_149_26                      1.000000
X_150_33                      1.000000
X_151_11                      1.000000
X_152_35                      1.000000
X_153_6                       1.000000
X_154_2                       1.000000
X_155_11                      1.000000
X_156_37                      1.000000
X_157_12                      1.000000
X_158_5                       1.000000
X_159_28                      1.000000
X_160_7                       1.000000
X_161_7                       1.000000
X_162_7                       1.000000
X_163_4                       1.000000
X_164_33                      1.000000
X_165_31                      1.000000
X_166_27                      1.000000
X_167_40                      1.000000
X_168_29                      1.000000
X_169_20                      1.000000
X_170_37                      1.000000
X_171_25                      1.000000
X_172_16                      1.000000
X_173_21                      1.000000
X_174_14                      1.000000
X_175_10                      1.000000
X_176_27                      1.000000
X_177_8                       1.000000
X_178_17                      1.000000
X_179_36                      1.000000
X_180_34                      1.000000
X_181_21                      1.000000
X_182_1                       1.000000
X_183_23                      1.000000
X_184_29                      1.000000
X_185_32                      1.000000
X_186_8                       1.000000
X_187_3                       1.000000
X_188_2                       1.000000
X_189_10                      1.000000
X_190_31                      1.000000
X_191_19                      1.000000
X_192_22                      1.000000
X_193_4                       1.000000
X_194_32                      1.000000
X_195_19                      1.000000
X_196_28                      1.000000
X_197_8                       1.000000
X_198_33                      1.000000
X_199_6                       1.000000
X_200_5                       1.000000
X_201_39                      1.000000
X_202_21                      1.000000
X_203_26                      1.000000
X_204_10                      1.000000
X_205_1                       1.000000
X_206_27                      1.000000
X_207_34                      1.000000
X_208_33                      1.000000
X_209_2                       1.000000
X_210_19                      1.000000
X_211_12                      1.000000
X_212_23                      1.000000
X_213_22                      1.000000
X_214_2                       1.000000
X_215_32                      1.000000
X_216_35                      1.000000
X_217_8                       1.000000
X_218_1                       1.000000
X_219_6                       1.000000
X_220_23                      1.000000
X_221_18                      1.000000
X_222_11                      1.000000
X_223_7                       1.000000
X_224_15                      1.000000
X_225_25                      1.000000
X_226_21                      1.000000
X_227_24                      1.000000
X_228_13                      1.000000
X_229_29                      1.000000
X_230_14                      1.000000
X_231_34                      1.000000
X_232_35                      1.000000
X_233_18                      1.000000
X_234_13                      1.000000
X_235_35                      1.000000
X_236_28                      1.000000
X_237_15                      1.000000
X_238_24                      1.000000
X_239_32                      1.000000
X_240_24                      1.000000
X_241_6                       1.000000
X_242_26                      1.000000
X_243_37                      1.000000
X_244_3                       1.000000
X_245_33                      1.000000
X_246_27                      1.000000
X_247_31                      1.000000
X_248_3                       1.000000
X_249_25                      1.000000
X_250_36                      1.000000
X_251_28                      1.000000
X_252_9                       1.000000
X_253_22                      1.000000
X_254_16                      1.000000
X_255_1                       1.000000
X_256_32                      1.000000
X_257_4                       1.000000
X_258_4                       1.000000
X_259_40                      1.000000
X_260_27                      1.000000
X_261_19                      1.000000
X_262_1                       1.000000
X_263_25                      1.000000
X_264_12                      1.000000
X_265_3                       1.000000
X_266_20                      1.000000
X_267_1                       1.000000
X_268_9                       1.000000
X_269_1                       1.000000
X_270_17                      1.000000
X_271_9                       1.000000
X_272_21                      1.000000
X_273_26                      1.000000
X_274_33                      1.000000
X_275_8                       1.000000
X_276_3                       1.000000
X_277_40                      1.000000
X_278_38                      1.000000
X_279_2                       1.000000
X_280_11                      1.000000
X_281_14                      1.000000
X_282_5                       1.000000
X_283_38                      1.000000
X_284_15                      1.000000
X_285_13                      1.000000
X_286_17                      1.000000
X_287_20                      1.000000
X_288_15                      1.000000
X_289_14                      1.000000
X_290_2                       1.000000
X_291_34                      1.000000
X_292_22                      1.000000
X_293_26                      1.000000
X_294_11                      1.000000
X_295_35                      1.000000
X_296_30                      1.000000
X_297_40                      1.000000
X_298_23                      1.000000
X_299_27                      1.000000
X_300_32                      1.000000
X_301_1                       1.000000
X_302_27                      1.000000
X_303_3                       1.000000
X_304_39                      1.000000
X_305_6                       1.000000
X_306_3                       1.000000
X_307_24                      1.000000
X_308_19                      1.000000
X_309_13                      1.000000
X_310_9                       1.000000
X_311_34                      1.000000
X_312_4                       1.000000
X_313_16                      1.000000
X_314_37                      1.000000
X_315_39                      1.000000
X_316_5                       1.000000
X_317_4                       1.000000
X_318_16                      1.000000
X_319_28                      1.000000
X_320_35                      1.000000
X_321_21                      1.000000
X_322_29                      1.000000
X_323_4                       1.000000
X_324_40                      1.000000
X_325_30                      1.000000
X_326_15                      1.000000
X_327_9                       1.000000
X_328_39                      1.000000
X_329_29                      1.000000
X_330_33                      1.000000
X_331_30                      1.000000
X_332_31                      1.000000
X_333_35                      1.000000
X_334_23                      1.000000
X_335_29                      1.000000
X_336_20                      1.000000
X_337_9                       1.000000
X_338_3                       1.000000
X_339_29                      1.000000
X_340_38                      1.000000
X_341_22                      1.000000
X_342_40                      1.000000
X_343_15                      1.000000
X_344_30                      1.000000
X_345_18                      1.000000
X_346_16                      1.000000
X_347_29                      1.000000
X_348_3                       1.000000
X_349_31                      1.000000
X_350_26                      1.000000
X_351_13                      1.000000
X_352_12                      1.000000
X_353_12                      1.000000
X_354_6                       1.000000
X_355_2                       1.000000
X_356_40                      1.000000
X_357_21                      1.000000
X_358_35                      1.000000
X_359_14                      1.000000
X_360_16                      1.000000
X_361_28                      1.000000
X_362_1                       1.000000
X_363_35                      1.000000
X_364_26                      1.000000
X_365_18                      1.000000
X_366_10                      1.000000
X_367_11                      1.000000
X_368_34                      1.000000
X_369_23                      1.000000
X_370_8                       1.000000
X_371_16                      1.000000
X_372_37                      1.000000
X_373_31                      1.000000
X_374_6                       1.000000
X_375_37                      1.000000
X_376_36                      1.000000
X_377_40                      1.000000
X_378_34                      1.000000
X_379_17                      1.000000
X_380_21                      1.000000
X_381_32                      1.000000
X_382_10                      1.000000
X_383_33                      1.000000
X_384_12                      1.000000
X_385_40                      1.000000
X_386_35                      1.000000
X_387_33                      1.000000
X_388_37                      1.000000
X_389_7                       1.000000
X_390_17                      1.000000
X_391_17                      1.000000
X_392_34                      1.000000
X_393_4                       1.000000
X_394_8                       1.000000
X_395_17                      1.000000
X_396_7                       1.000000
X_397_2                       1.000000
X_398_13                      1.000000
X_399_7                       1.000000
X_400_9                       1.000000
X_401_12                      1.000000
X_402_6                       1.000000
X_403_11                      1.000000
X_404_29                      1.000000
X_405_11                      1.000000
X_406_29                      1.000000
X_407_11                      1.000000
X_408_38                      1.000000
X_409_12                      1.000000
X_410_26                      1.000000
X_411_7                       1.000000
X_412_36                      1.000000
X_413_10                      1.000000
X_414_22                      1.000000
X_415_15                      1.000000
X_416_6                       1.000000
X_417_29                      1.000000
X_418_39                      1.000000
X_419_32                      1.000000
X_420_5                       1.000000
X_421_8                       1.000000
X_422_20                      1.000000
X_423_11                      1.000000
X_424_11                      1.000000
X_425_22                      1.000000
X_426_23                      1.000000
X_427_12                      1.000000
X_428_17                      1.000000
X_429_31                      1.000000
X_430_34                      1.000000
X_431_18                      1.000000
X_432_26                      1.000000
X_433_12                      1.000000
X_434_39                      1.000000
X_435_23                      1.000000
X_436_5                       1.000000
X_437_38                      1.000000
X_438_8                       1.000000
X_439_17                      1.000000
X_440_25                      1.000000
X_441_35                      1.000000
X_442_18                      1.000000
X_443_21                      1.000000
X_444_5                       1.000000
X_445_17                      1.000000
X_446_20                      1.000000
X_447_19                      1.000000
X_448_4                       1.000000
X_449_37                      1.000000
X_450_23                      1.000000
X_451_30                      1.000000
X_452_30                      1.000000
X_453_40                      1.000000
X_454_16                      1.000000
X_455_19                      1.000000
X_456_30                      1.000000
X_457_19                      1.000000
X_458_3                       1.000000
X_459_15                      1.000000
X_460_26                      1.000000
X_461_34                      1.000000
X_462_20                      1.000000
X_463_25                      1.000000
X_464_26                      1.000000
X_465_13                      1.000000
X_466_40                      1.000000
X_467_25                      1.000000
X_468_22                      1.000000
X_469_39                      1.000000
X_470_36                      1.000000
X_471_34                      1.000000
X_472_30                      1.000000
X_473_16                      1.000000
X_474_9                       1.000000
X_475_36                      1.000000
X_476_37                      1.000000
X_477_11                      1.000000
X_478_39                      1.000000
X_479_1                       1.000000
X_480_3                       1.000000
X_481_38                      1.000000
X_482_14                      1.000000
X_483_21                      1.000000
X_484_32                      1.000000
X_485_39                      1.000000
X_486_11                      1.000000
X_487_28                      1.000000
X_488_21                      1.000000
X_489_5                       1.000000
X_490_22                      1.000000
X_491_23                      1.000000
X_492_38                      1.000000
X_493_15                      1.000000
X_494_9                       1.000000
X_495_27                      1.000000
X_496_16                      1.000000
X_497_18                      1.000000
X_498_25                      1.000000
X_499_34                      1.000000
X_500_31                      1.000000
All other variables in the range 1-20001 are 0.
